* GENERATED BY CHARMM-GUI (http://www.charmm-gui.org) v2.0 on Apr, 16. 2020. JOBID=8703714908
* 

DIMENS CHSIZE 3000000 MAXRES 3000000

! Read topology and parameter files
stream toppar_drude.str

! Read PSF and Coordinates
! open read unit 10 card name step2_drude.psf
! read psf  unit 10 card
! 
! open read unit 10 card name step2_drude.crd
! read coor unit 10 card
!obtain number of segments and segment names
stream step1_reader_nseg.str

set iprot = 0
set icarb = 0

stream step1_reader_seg1.str

open read unit 10 card name step1_reader_seg1.crd
read sequence coor unit 10 RESI  !!!SEGI @segname

generate @segname first none last none setup warn drude dmass 0.4 ! show

!read coordinates
rewind unit 10
read coor card unit 10 append


set iprot = 0
set icarb = 0

stream step1_reader_seg2.str

open read unit 10 card name step1_reader_seg2.crd
read sequence coor unit 10 RESI  !!!SEGI @segname

generate @segname first none last none setup warn drude dmass 0.4 ! show

!read coordinates
rewind unit 10
read coor card unit 10 append

coor sdrude
coor shake

COOR COPY COMP
SHAKE bonh param nofast -
      select  .not. type D*  end -
      select  .not. type D*  end

! Setup crystal

!open read unit 10 card name crystal_image.str
!CRYSTAL DEFINE @XTLtype @A @B @C @alpha @beta @gamma
!CRYSTAL READ UNIT 10 CARD
!image byres xcen 0.0 ycen 0.0 zcen 0.0 sele resn SWM4 end

nbonds atom vatom switch vswitch bycb -
       ctonnb 10.0 ctofnb 12.0 cutnb 16.0 -
       inbfrq -1 imgfrq -1 wmin 1.0 cdie eps 1.0

energy

CONS FIX SELECT .NOT. TYPE D* END
mini ABNR nstep 2000 nprint 20
CONS FIX SELE NONE END
energy

!cons harm force 0.0 sele all end
!mini SD   nstep 300 nprint 20
!mini ABNR nstep 300 nprint 20

open write unit 10 card name step3_mini.pdb
write coor unit 10 pdb  

open write unit 10 card name step3_mini.crd
write coor unit 10 card

open write unit 10 card name step3_mini.psf
write psf unit 10 card
DEFINE MOL1 SELECT SEGID HETA END
DEFINE MOL2 SELECT SEGID HETB END
INTEraction SELE MOL1 END SELE MOL2 END UNIT 6

stop
